9
0 100 88 81 8 83 92 54 78 
11 0 89 27 26 34 91 50 15 
38 82 0 2 62 10 61 55 76 
25 90 14 0 91 8 84 33 14 
69 75 2 12 0 61 99 80 74 
7 47 10 8 93 0 19 91 41 
67 84 54 22 78 23 0 90 1 
31 36 40 98 79 8 56 0 46 
89 78 2 22 62 62 43 30 0 
